p cnf 76 240
1 -2 -3 0
-1 2 -3 0
1 2 3 0
-1 -2 3 0
4 1 -5 0
-4 -1 -5 0
4 -1 5 0
-4 1 5 0
6 3 0
6 5 0
-3 -5 -6 0
1 7 -8 0
-1 -7 -8 0
1 -7 8 0
-1 7 8 0
-8 4 -9 0
8 -4 -9 0
-8 -4 9 0
8 4 9 0
4 -11 -12 0
-4 11 -12 0
4 11 12 0
-4 -11 12 0
13 -10 0
13 -12 0
10 12 -13 0
1 -14 0
-1 -14 0
-16 14 0
-16 15 0
-14 -15 16 0
-13 16 -17 0
13 -16 -17 0
-13 -16 17 0
13 16 17 0
-2 17 -18 0
2 -17 -18 0
-2 -17 18 0
2 17 18 0
22 21 0
22 20 0
-21 -20 -22 0
-23 -20 0
-23 22 0
20 -22 23 0
24 -19 0
24 -23 0
19 23 -24 0
-7 22 -25 0
7 -22 -25 0
-7 -22 25 0
7 22 25 0
-25 22 -26 0
25 -22 -26 0
-25 -22 26 0
25 22 26 0
27 24 0
27 26 0
-24 -26 -27 0
29 28 0
29 -10 0
-28 10 -29 0
-30 27 0
-30 -29 0
-27 29 30 0
18 30 -31 0
-18 -30 -31 0
18 -30 31 0
-18 30 31 0
32 9 0
32 -31 0
-9 31 -32 0
-6 32 -33 0
6 -32 -33 0
-6 -32 33 0
6 32 33 0
11 4 -34 0
-11 -4 -34 0
11 -4 34 0
-11 4 34 0
28 -34 -35 0
-28 34 -35 0
28 34 35 0
-28 -34 35 0
37 22 0
37 -15 0
-22 15 -37 0
-38 -36 0
-38 -37 0
36 37 38 0
-35 -38 -39 0
35 38 -39 0
-35 38 39 0
35 -38 39 0
40 11 -41 0
-40 -11 -41 0
40 -11 41 0
-40 11 41 0
-42 -41 0
-42 28 0
41 -28 42 0
-29 8 -43 0
29 -8 -43 0
-29 -8 43 0
29 8 43 0
44 42 0
44 43 0
-42 -43 -44 0
40 20 -45 0
-40 -20 -45 0
40 -20 45 0
-40 20 45 0
46 44 0
46 -45 0
-44 45 -46 0
-48 -47 0
-48 -3 0
47 3 48 0
21 -49 -50 0
-21 49 -50 0
21 49 50 0
-21 -49 50 0
-51 -48 0
-51 50 0
48 -50 51 0
46 51 -52 0
-46 -51 -52 0
46 -51 52 0
-46 51 52 0
-39 -52 -53 0
39 52 -53 0
-39 52 53 0
39 -52 53 0
54 10 0
54 47 0
-10 -47 -54 0
-55 -49 0
-55 54 0
49 -54 55 0
-56 -36 0
-56 -55 0
36 55 56 0
57 47 0
57 36 0
-47 -36 -57 0
57 55 -58 0
-57 -55 -58 0
57 -55 58 0
-57 55 58 0
59 -56 0
59 58 0
56 -58 -59 0
57 36 -60 0
-57 -36 -60 0
57 -36 60 0
-57 36 60 0
-61 -59 0
-61 -60 0
59 60 61 0
-53 61 -62 0
53 -61 -62 0
-53 -61 62 0
53 61 62 0
-63 1 0
-63 -17 0
-1 17 63 0
-64 55 0
-64 57 0
-55 -57 64 0
-63 64 -65 0
63 -64 -65 0
-63 -64 65 0
63 64 65 0
-67 66 0
-67 -26 0
-66 26 67 0
65 -67 -68 0
-65 67 -68 0
65 67 68 0
-65 -67 68 0
-69 15 0
-69 25 0
-15 -25 69 0
-68 -69 -70 0
68 69 -70 0
-68 69 70 0
68 -69 70 0
71 27 0
71 -15 0
-27 15 -71 0
26 17 -72 0
-26 -17 -72 0
26 -17 72 0
-26 17 72 0
-73 71 0
-73 72 0
-71 -72 73 0
-70 -73 -74 0
70 73 -74 0
-70 73 74 0
70 -73 74 0
62 -74 -75 0
-62 74 -75 0
62 74 75 0
-62 -74 75 0
76 -33 0
76 -75 0
33 75 -76 0
18 69 45 -10 0
-29 -16 0
38 -30 64 -74 0
-6 -47 17 39 13 0
39 -35 -4 -55 0
-70 -29 3 -60 33 0
-49 53 -61 12 0
8 -67 43 -68 -41 -76 0
-27 55 -67 -60 0
31 -32 -37 -4 0
40 20 0
-28 44 -73 0
-16 -70 -7 -32 21 -46 0
-55 -2 22 -38 -33 -23 0
65 -18 45 0
-2 -33 47 0
9 34 -13 -6 -48 31 0
-48 -27 -59 56 0
8 68 10 41 75 -6 0
-34 15 47 0
-29 -32 66 0
50 38 32 33 -66 -43 0
-70 -30 9 0
46 40 0
-41 -18 -70 25 59 0
29 61 -63 -1 -55 0
-33 -10 -59 0
15 -75 4 11 7 0
27 19 46 32 0
30 -43 66 40 0
32 64 -17 -43 0
76 0
